# Objective value = 2510.13
I_0_0 1318
I_0_1 1863
I_0_2 1604
I_0_3 1.7199999999999998e+03
I_1_0 52
I_1_1 26
I_1_2 52
I_1_3 26
I_2_0 118
I_2_1 59
I_2_2 118
I_2_3 5.8999999999999993e+01
I_3_0 100
I_3_1 50
I_3_2 0
I_3_3 100
I_4_0 75
I_4_1 0
I_4_2 75
I_4_3 0
I_5_0 36
I_5_1 1.8000000000000007e+01
I_5_2 -2.1316282072803006e-14
I_5_3 3.5999999999999986e+01
I_6_0 77
I_6_1 0
I_6_2 77
I_6_3 0
I_7_0 150
I_7_1 75
I_7_2 -2.8421709430404007e-14
I_7_3 150
I_8_0 39
I_8_1 0
I_8_2 39
I_8_3 0
I_9_0 72
I_9_1 0
I_9_2 72
I_9_3 3.9968028886505635e-15
I_10_0 54
I_10_1 0
I_10_2 54
I_10_3 0
q_1_0 0
q_1_1 5.1999999999999993e+01
q_1_2 0
q_2_0 0
q_2_1 1.1799999999999999e+02
q_2_2 1.7763568394002505e-15
q_3_0 0
q_3_1 -1.7763568394002505e-15
q_3_2 150
q_4_0 0
q_4_1 150
q_4_2 0
q_5_0 7.9936057773011271e-15
q_5_1 -2.1316282072803006e-14
q_5_2 5.4000000000000007e+01
q_6_0 0
q_6_1 154
q_6_2 0
q_7_0 0
q_7_1 0
q_7_2 2.2500000000000003e+02
q_8_0 0
q_8_1 78
q_8_2 0
q_9_0 0
q_9_1 144
q_9_2 3.9968028886505635e-15
q_10_0 0
q_10_1 108
q_10_2 0
y_0_0 0
y_0_1 1
y_0_2 1
y_1_0 0
y_1_1 1
y_1_2 0
y_2_0 0
y_2_1 1
y_2_2 0
y_3_0 0
y_3_1 -6.9388939039072284e-17
y_3_2 1
y_4_0 0
y_4_1 1
y_4_2 0
y_5_0 4.4408920985006262e-16
y_5_1 -5.5511151231257827e-16
y_5_2 1
y_6_0 0
y_6_1 1
y_6_2 0
y_7_0 0
y_7_1 2.7755575615628914e-17
y_7_2 1
y_8_0 0
y_8_1 1
y_8_2 0
y_9_0 0
y_9_1 1
y_9_2 5.5511151231257827e-17
y_10_0 0
y_10_1 1
y_10_2 0
x_0_1_0 0
x_0_1_1 0
x_0_1_2 0
x_0_2_0 0
x_0_2_1 1.0000000000000009e+00
x_0_2_2 0
x_0_3_0 0
x_0_3_1 0
x_0_3_2 0
x_0_4_0 0
x_0_4_1 0
x_0_4_2 0
x_0_5_0 1.1102230246251565e-16
x_0_5_1 -1.1102230246251565e-15
x_0_5_2 1
x_0_6_0 0
x_0_6_1 0
x_0_6_2 0
x_0_7_0 -3.2612801348363973e-16
x_0_7_1 2.7755575615628914e-17
x_0_7_2 1
x_0_8_0 0
x_0_8_1 0
x_0_8_2 0
x_0_9_0 3.3306690738754696e-16
x_0_9_1 1.0000000000000004e+00
x_0_9_2 0
x_0_10_0 0
x_0_10_1 0
x_0_10_2 0
x_1_2_0 0
x_1_2_1 0
x_1_2_2 0
x_1_3_0 0
x_1_3_1 -6.9388939039072284e-17
x_1_3_2 0
x_1_4_0 0
x_1_4_1 0
x_1_4_2 0
x_1_5_0 0
x_1_5_1 0
x_1_5_2 0
x_1_6_0 0
x_1_6_1 0
x_1_6_2 -6.9388939039072284e-18
x_1_7_0 0
x_1_7_1 0
x_1_7_2 0
x_1_8_0 2.2204460492503131e-16
x_1_8_1 1
x_1_8_2 0
x_1_9_0 0
x_1_9_1 0
x_1_9_2 0
x_1_10_0 0
x_1_10_1 1
x_1_10_2 3.4694469519536142e-17
x_2_3_0 0
x_2_3_1 0
x_2_3_2 0
x_2_4_0 0
x_2_4_1 1
x_2_4_2 1.3877787807814457e-17
x_2_5_0 0
x_2_5_1 0
x_2_5_2 0
x_2_6_0 -6.9388939039072284e-18
x_2_6_1 0
x_2_6_2 0
x_2_7_0 0
x_2_7_1 0
x_2_7_2 1.3877787807814457e-17
x_2_8_0 0
x_2_8_1 0
x_2_8_2 0
x_2_9_0 0
x_2_9_1 -8.8817841970012523e-16
x_2_9_2 0
x_2_10_0 0
x_2_10_1 0
x_2_10_2 0
x_3_4_0 0
x_3_4_1 0
x_3_4_2 0
x_3_5_0 0
x_3_5_1 0
x_3_5_2 1
x_3_6_0 0
x_3_6_1 0
x_3_6_2 0
x_3_7_0 0
x_3_7_1 0
x_3_7_2 1
x_3_8_0 0
x_3_8_1 -6.9388939039072284e-17
x_3_8_2 0
x_3_9_0 0
x_3_9_1 0
x_3_9_2 0
x_3_10_0 0
x_3_10_1 0
x_3_10_2 0
x_4_5_0 0
x_4_5_1 0
x_4_5_2 0
x_4_6_0 -6.9388939039072284e-18
x_4_6_1 1
x_4_6_2 -1.3877787807814457e-17
x_4_7_0 0
x_4_7_1 0
x_4_7_2 0
x_4_8_0 0
x_4_8_1 0
x_4_8_2 0
x_4_9_0 0
x_4_9_1 1.3877787807814457e-17
x_4_9_2 0
x_4_10_0 0
x_4_10_1 0
x_4_10_2 0
x_5_6_0 0
x_5_6_1 0
x_5_6_2 0
x_5_7_0 0
x_5_7_1 0
x_5_7_2 -2.7755575615628914e-17
x_5_8_0 0
x_5_8_1 0
x_5_8_2 0
x_5_9_0 0
x_5_9_1 0
x_5_9_2 5.5511151231257827e-17
x_5_10_0 0
x_5_10_1 0
x_5_10_2 0
x_6_7_0 0
x_6_7_1 0
x_6_7_2 0
x_6_8_0 0
x_6_8_1 0
x_6_8_2 0
x_6_9_0 0
x_6_9_1 0
x_6_9_2 0
x_6_10_0 0
x_6_10_1 1.0000000000000002e+00
x_6_10_2 6.9388939039072284e-18
x_7_8_0 0
x_7_8_1 0
x_7_8_2 0
x_7_9_0 3.3306690738754696e-16
x_7_9_1 3.4694469519536142e-17
x_7_9_2 5.5511151231257827e-17
x_7_10_0 0
x_7_10_1 0
x_7_10_2 0
x_8_9_0 0
x_8_9_1 1
x_8_9_2 0
x_8_10_0 -2.2204460492503131e-16
x_8_10_1 -4.1633363423443370e-17
x_8_10_2 0
x_9_10_0 0
x_9_10_1 0
x_9_10_2 0
